\* Problem: Unknown *\

Maximize
 obj: + xp_0_0 + xp_1_0 + xp_1_1 + xp_2_0 + xp_2_1 + xp_3_0 + xp_3_1
 + xp_3_2 + xp_4_0 + xp_4_1 + xp_5_0 + xp_6_0 + xp_7_0 + xp_8_0 + xp_9_0
 + xp_9_1 + xp_10_0 + xp_11_0 + xp_11_1 + xp_12_0 + xp_12_1 + xp_13_0
 + xp_13_1 + xp_13_2 + xp_14_0 + xp_14_1 + xp_15_0 + xp_16_0 + xp_17_0
 + xp_17_1 + xp_18_0 + xp_18_1 + xp_18_2 + xp_18_3 + xp_19_0 + xp_19_1
 + xp_20_0 + xp_21_0 + xp_22_0 + xp_22_1 + xp_23_0 + xp_24_0 + xp_24_1
 + xp_24_2 + xp_24_3 + xp_25_0 + xp_26_0 + xp_26_1 + xp_26_2 + xp_27_0
 + xp_27_1 + xp_28_0 + xp_28_1 + xp_29_0 + xp_30_0 + xp_30_1 + xp_30_2
 + xp_31_0 + xp_32_0 + xp_32_1 + xp_33_0 + xp_34_0 + xp_34_1 + xp_35_0
 + xp_36_0 + xp_37_0 + xp_38_0 + xp_38_1 + xp_39_0 + xp_40_0 + xp_40_1
 + xp_40_2 + xp_41_0 + xp_41_1 + xp_42_0 + xp_42_1 + xp_42_2 + xp_43_0
 + xp_44_0 + xp_44_1 + xp_45_0 + xp_45_1 + xp_45_2 + xp_46_0 + xp_47_0
 + xp_48_0 + xp_48_1 + xp_49_0 + xp_50_0 + xp_50_1 + xp_51_0 + xp_52_0
 + xp_53_0 + xp_53_1 + xp_53_2 + xp_54_0 + xp_55_0 + xp_56_0 + xp_57_0
 + xp_57_1 + xp_58_0 + xp_58_1 + xp_59_0 + xp_60_0 + xp_60_1 + xp_61_0
 + xp_61_1 + xp_62_0 + xp_63_0 + xp_63_1 + xp_64_0 + xp_65_0 + xp_65_1
 + xp_66_0 + xp_67_0 + xp_67_1 + xp_68_0 + xp_68_1 + xp_68_2 + xp_69_0
 + xp_70_0 + xp_71_0 + xp_72_0 + xp_73_0 + xp_74_0 + xp_74_1 + xp_75_0
 + xp_75_1 + xp_76_0 + xp_77_0 + xp_77_1 + xp_77_2 + xp_78_0 + xp_78_1
 + xp_78_2 + xp_78_3 + xp_78_4 + xp_79_0 + xp_79_1 + xp_79_2 + xp_80_0
 + xp_80_1 + xp_81_0 + xp_81_1 + xp_81_2 + xp_81_3 + xp_81_4 + xp_82_0
 + xp_82_1 + xp_82_2 + xp_83_0 + xp_83_1 + xp_84_0 + xp_85_0 + xp_85_1
 + xp_85_2 + xp_86_0 + xp_86_1 + xp_87_0 + xp_88_0 + xp_88_1 + xp_89_0
 + xp_90_0 + xp_90_1 + xp_90_2 + xp_91_0 + xp_91_1 + xp_91_2 + xp_92_0
 + xp_92_1 + xp_92_2 + xp_93_0 + xp_94_0 + xp_94_1 + xp_94_2 + xp_94_3
 + xp_95_0 + xp_95_1 + xp_95_2 + xp_96_0 + xp_96_1 + xp_97_0 + xp_98_0
 + xp_98_1 + xp_98_2 + xp_98_3 + xp_99_0 + xp_99_1 + xp_99_2 + xp_100_0
 + xp_101_0 + xp_101_1 + xp_102_0 + xp_103_0 + xp_104_0 + xp_104_1
 + xp_105_0 + xp_105_1 + xp_106_0 + xp_106_1 + xp_106_2 + xp_107_0
 + xp_108_0 + xp_108_1 + xp_108_2 + xp_109_0 + xp_109_1 + xp_110_0
 + xp_111_0 + xp_111_1 + xp_112_0 + xp_112_1 + xp_113_0 + xp_114_0
 + xp_115_0 + xp_115_1 + xp_116_0 + xp_116_1 + xp_117_0 + xp_118_0
 + xp_119_0 + xp_119_1 + xp_119_2 + xp_119_3 + xp_119_4 + xp_120_0
 + xp_120_1 + xp_120_2 + xp_121_0 + xp_122_0 + xp_123_0 + xp_123_1
 + xp_124_0 + xp_124_1 + xp_124_2 + xp_125_0 + xp_125_1 + xp_126_0
 + xp_126_1 + xp_126_2 + xp_126_3 + xp_127_0 + xp_127_1 + xp_128_0
 + xp_128_1 + xp_128_2 + xp_129_0 + xp_129_1 + xp_130_0 + xp_131_0
 + xp_131_1 + xp_131_2

Subject To
 r_1: + xp_128_2 + xp_128_1 + xp_123_1 + xp_122_0 + xp_121_0 + xp_108_2
 + xp_107_0 + xp_78_3 + xp_67_1 + xp_57_1 + xp_40_2 + xp_40_1 + xp_25_0
 + xp_22_1 + xp_18_3 + xp_18_2 + xp_18_1 + xp_16_0 + xp_13_2 + xp_13_1
 + xp_4_0 <= 38512.6859142607
 r_2: + xp_131_2 + xp_131_1 + xp_127_1 + xp_126_1 + xp_120_1 + xp_120_0
 + xp_94_3 + xp_94_1 + xp_93_0 + xp_90_1 + xp_85_2 + xp_85_1 + xp_85_0
 + xp_77_2 + xp_77_1 + xp_75_1 + xp_75_0 + xp_74_1 + xp_71_0 + xp_66_0
 + xp_65_1 + xp_65_0 + xp_61_1 + xp_55_0 + xp_52_0 + xp_48_1 + xp_48_0
 + xp_42_2 + xp_42_1 + xp_38_1 + xp_32_0 + xp_28_1 + xp_28_0 + xp_24_3
 + xp_24_2 + xp_24_0 + xp_19_1 + xp_19_0 + xp_12_1 + xp_1_1
 <= 34556.516170349
 r_3: + xp_126_3 + xp_124_1 + xp_114_0 + xp_106_2 + xp_105_1 + xp_98_3
 + xp_95_1 + xp_94_2 + xp_92_2 + xp_91_2 + xp_85_2 + xp_83_1 + xp_79_2
 + xp_76_0 + xp_68_2 + xp_48_1 + xp_41_1 + xp_34_0 + xp_30_2 + xp_26_2
 + xp_24_3 <= 36228.508042152
 r_4: + xp_119_3 + xp_119_2 + xp_117_0 + xp_104_1 + xp_95_2 + xp_95_0
 + xp_91_1 + xp_91_0 + xp_88_1 + xp_84_0 + xp_82_2 + xp_81_4 + xp_81_3
 + xp_79_1 + xp_79_0 + xp_78_4 + xp_53_2 + xp_46_0 + xp_45_2 + xp_44_1
 + xp_43_0 + xp_40_2 + xp_40_1 + xp_40_0 + xp_34_1 + xp_27_1 + xp_18_3
 + xp_4_1 + xp_3_2 <= 35117.6705225369
 r_5: + xp_130_0 + xp_119_3 + xp_119_2 + xp_104_1 + xp_99_0 + xp_88_1
 + xp_82_2 + xp_81_4 + xp_81_3 + xp_78_4 + xp_53_2 + xp_45_2 + xp_44_1
 + xp_27_1 + xp_18_3 + xp_7_0 + xp_4_1 + xp_3_2 + xp_2_0
 <= 36228.508042152
 r_6: + xp_126_3 + xp_126_2 + xp_119_0 + xp_114_0 + xp_95_1 + xp_92_2
 + xp_92_1 + xp_91_2 + xp_83_1 + xp_83_0 + xp_82_1 + xp_81_0 + xp_79_2
 + xp_70_0 + xp_68_2 + xp_68_1 + xp_58_1 + xp_53_0 + xp_48_1 + xp_45_0
 + xp_34_0 + xp_32_1 + xp_30_2 + xp_30_1 + xp_18_1 <= 38281.3816343724
 r_7: + xp_119_4 + xp_119_1 + xp_112_1 + xp_111_1 + xp_104_0 + xp_88_0
 + xp_82_0 + xp_81_2 + xp_81_1 + xp_78_2 + xp_53_1 + xp_50_1 + xp_45_1
 + xp_44_0 + xp_27_0 + xp_18_2 + xp_18_0 + xp_3_1 <= 35117.6705225369
 r_8: + xp_131_2 + xp_131_1 + xp_127_1 + xp_126_1 + xp_120_1 + xp_120_0
 + xp_118_0 + xp_103_0 + xp_94_3 + xp_94_1 + xp_90_1 + xp_77_2 + xp_77_1
 + xp_74_1 + xp_71_0 + xp_61_1 + xp_55_0 + xp_42_2 + xp_42_1 + xp_38_1
 + xp_32_0 + xp_24_3 + xp_24_2 + xp_24_0 + xp_12_1 + xp_1_1
 <= 38512.6859142607
 r_9: + xp_131_0 + xp_127_0 + xp_123_1 + xp_122_0 + xp_120_2 + xp_108_2
 + xp_78_3 + xp_77_0 + xp_67_1 + xp_57_1 + xp_42_0 + xp_33_0 + xp_32_1
 + xp_24_1 <= 39033.1753554502
 r_10: + xp_112_1 + xp_111_1 + xp_106_0 + xp_99_0 + xp_98_0 + xp_94_1
 + xp_88_1 + xp_88_0 + xp_85_0 + xp_78_4 + xp_78_2 + xp_50_1 + xp_26_0
 + xp_24_0 + xp_8_0 + xp_7_0 + xp_4_1 + xp_3_2 + xp_3_1 + xp_2_0
 <= 38281.3816343724
 r_11: + xp_119_0 + xp_112_0 + xp_111_0 + xp_95_1 + xp_91_2 + xp_82_1
 + xp_81_0 + xp_79_2 + xp_78_3 + xp_78_1 + xp_78_0 + xp_59_0 + xp_53_0
 + xp_50_0 + xp_49_0 + xp_45_0 + xp_34_0 + xp_18_1 + xp_4_0 + xp_3_0
 <= 35686.9315461944
 r_12: + xp_129_1 + xp_128_1 + xp_128_0 + xp_123_0 + xp_119_2 + xp_119_1
 + xp_117_0 + xp_112_1 + xp_111_1 + xp_108_1 + xp_101_0 + xp_95_0
 + xp_91_1 + xp_82_2 + xp_82_0 + xp_81_3 + xp_81_1 + xp_80_1 + xp_79_1
 + xp_78_4 + xp_78_2 + xp_78_0 + xp_73_0 + xp_63_1 + xp_60_1 + xp_50_1
 + xp_46_0 + xp_45_1 + xp_44_1 + xp_44_0 + xp_40_1 + xp_40_0 + xp_18_2
 + xp_18_0 + xp_17_1 + xp_15_0 + xp_14_0 + xp_13_1 + xp_13_0 + xp_9_0
 + xp_4_1 <= 35248.2269503546
 r_13: + xp_129_0 + xp_128_2 + xp_123_1 + xp_120_2 + xp_120_1 + xp_119_4
 + xp_119_3 + xp_109_1 + xp_101_1 + xp_100_0 + xp_96_1 + xp_95_2
 + xp_91_0 + xp_90_0 + xp_81_4 + xp_81_2 + xp_80_0 + xp_79_0 + xp_75_1
 + xp_68_0 + xp_63_0 + xp_60_0 + xp_53_2 + xp_53_1 + xp_45_2 + xp_40_2
 + xp_34_1 + xp_31_0 + xp_30_0 + xp_18_3 + xp_17_0 + xp_13_2 + xp_9_1
 <= 35686.9315461944
 r_14: + xp_131_2 + xp_131_1 + xp_131_0 + xp_126_3 + xp_126_2 + xp_125_1
 + xp_125_0 + xp_124_2 + xp_124_1 + xp_124_0 + xp_115_1 + xp_115_0
 + xp_106_2 + xp_106_1 + xp_99_2 + xp_99_1 + xp_98_3 + xp_98_2 + xp_98_1
 + xp_94_3 + xp_94_2 + xp_94_0 + xp_92_2 + xp_92_1 + xp_86_1 + xp_86_0
 + xp_85_2 + xp_85_1 + xp_77_2 + xp_77_1 + xp_77_0 + xp_68_2 + xp_68_1
 + xp_65_1 + xp_65_0 + xp_58_1 + xp_56_0 + xp_51_0 + xp_48_1 + xp_41_1
 + xp_41_0 + xp_38_1 + xp_38_0 + xp_35_0 + xp_32_1 + xp_30_2 + xp_30_1
 + xp_26_2 + xp_26_1 + xp_24_3 + xp_24_2 + xp_24_1 + xp_20_0 + xp_19_1
 + xp_19_0 + xp_12_1 + xp_12_0 + xp_2_1 + xp_0_0 <= 35117.6705225369
 r_15: + xp_131_2 + xp_131_0 + xp_126_3 + xp_126_2 + xp_125_0 + xp_124_1
 + xp_124_0 + xp_120_2 + xp_120_1 + xp_116_0 + xp_115_0 + xp_109_1
 + xp_99_2 + xp_98_3 + xp_98_1 + xp_96_1 + xp_94_2 + xp_94_0 + xp_92_2
 + xp_92_1 + xp_90_0 + xp_89_0 + xp_86_0 + xp_85_2 + xp_85_1 + xp_77_2
 + xp_77_0 + xp_75_1 + xp_68_2 + xp_68_1 + xp_68_0 + xp_65_0 + xp_58_1
 + xp_51_0 + xp_48_1 + xp_42_2 + xp_42_0 + xp_38_1 + xp_38_0 + xp_36_0
 + xp_32_1 + xp_28_0 + xp_26_2 + xp_26_1 + xp_24_3 + xp_24_2 + xp_24_1
 + xp_19_1 + xp_12_0 + xp_11_1 + xp_0_0 <= 35248.2269503546
 r_16: + xp_128_0 + xp_123_0 + xp_108_1 + xp_108_0 + xp_78_4 + xp_78_2
 + xp_78_1 + xp_78_0 + xp_73_0 + xp_67_0 + xp_57_0 + xp_46_0 + xp_44_1
 + xp_44_0 + xp_40_0 + xp_22_0 + xp_18_0 + xp_13_0 + xp_6_0 + xp_4_1
 <= 39033.1753554502
 r_17: + xp_129_1 + xp_128_1 + xp_126_0 + xp_124_2 + xp_119_2 + xp_119_1
 + xp_112_1 + xp_111_1 + xp_109_0 + xp_97_0 + xp_95_0 + xp_91_1
 + xp_90_2 + xp_81_3 + xp_81_1 + xp_80_1 + xp_79_1 + xp_63_1 + xp_62_0
 + xp_61_0 + xp_60_1 + xp_47_0 + xp_45_1 + xp_40_1 + xp_22_1 + xp_18_2
 + xp_17_1 + xp_13_1 + xp_9_0 + xp_1_0 <= 34556.516170349
 r_18: + xp_126_1 + xp_126_0 + xp_106_0 + xp_99_0 + xp_98_0 + xp_94_1
 + xp_92_0 + xp_85_0 + xp_68_0 + xp_58_0 + xp_48_0 + xp_32_0 + xp_30_0
 + xp_26_0 + xp_24_0 + xp_5_0 + xp_2_0 <= 35686.9315461944
 r_19: + xp_131_1 + xp_125_1 + xp_124_2 + xp_116_1 + xp_115_1 + xp_110_0
 + xp_108_1 + xp_106_2 + xp_106_1 + xp_99_1 + xp_98_2 + xp_94_3
 + xp_86_1 + xp_78_0 + xp_77_1 + xp_65_1 + xp_56_0 + xp_42_1 + xp_28_1
 + xp_19_0 + xp_14_0 + xp_12_1 + xp_11_0 + xp_3_0 + xp_2_1
 <= 35686.9315461944
 r_20: + xp_129_0 + xp_128_2 + xp_123_1 + xp_119_4 + xp_119_3 + xp_119_0
 + xp_112_0 + xp_111_0 + xp_108_2 + xp_108_0 + xp_107_0 + xp_101_1
 + xp_95_2 + xp_95_1 + xp_91_2 + xp_91_0 + xp_82_1 + xp_81_4 + xp_81_2
 + xp_81_0 + xp_80_0 + xp_79_2 + xp_79_0 + xp_78_3 + xp_78_1 + xp_69_0
 + xp_64_0 + xp_63_0 + xp_60_0 + xp_50_0 + xp_49_0 + xp_45_2 + xp_45_0
 + xp_40_2 + xp_18_3 + xp_18_1 + xp_17_0 + xp_14_1 + xp_13_2 + xp_10_0
 + xp_9_1 + xp_4_0 <= 34556.516170349
 r_21: + xp_126_3 + xp_124_1 + xp_113_0 + xp_106_2 + xp_105_1 + xp_99_2
 + xp_99_1 + xp_98_3 + xp_94_2 + xp_92_2 + xp_86_1 + xp_86_0 + xp_85_2
 + xp_83_1 + xp_77_2 + xp_77_1 + xp_77_0 + xp_68_2 + xp_65_1 + xp_65_0
 + xp_48_1 + xp_41_1 + xp_38_1 + xp_38_0 + xp_30_2 + xp_26_2 + xp_24_3
 + xp_20_0 + xp_2_1 + xp_0_0 <= 35117.6705225369
 r_22: + xp_126_2 + xp_124_2 + xp_124_0 + xp_106_1 + xp_105_0 + xp_98_2
 + xp_98_1 + xp_94_3 + xp_94_0 + xp_92_1 + xp_85_1 + xp_83_0 + xp_68_1
 + xp_58_1 + xp_41_0 + xp_32_1 + xp_30_1 + xp_26_1 + xp_24_2 + xp_24_1
 <= 35117.6705225369
 r_23: + xp_128_2 + xp_128_1 + xp_128_0 + xp_119_4 + xp_119_3 + xp_119_2
 + xp_119_1 + xp_117_0 + xp_112_1 + xp_111_1 + xp_104_1 + xp_104_0
 + xp_100_0 + xp_95_2 + xp_95_0 + xp_91_1 + xp_91_0 + xp_84_0 + xp_82_2
 + xp_82_0 + xp_81_4 + xp_81_3 + xp_81_2 + xp_81_1 + xp_80_1 + xp_80_0
 + xp_79_1 + xp_79_0 + xp_78_4 + xp_78_2 + xp_73_0 + xp_60_1 + xp_60_0
 + xp_53_2 + xp_53_1 + xp_50_1 + xp_46_0 + xp_45_2 + xp_45_1 + xp_44_1
 + xp_44_0 + xp_40_2 + xp_40_1 + xp_40_0 + xp_34_1 + xp_21_0 + xp_18_3
 + xp_18_2 + xp_18_0 + xp_15_0 + xp_9_1 + xp_9_0 + xp_4_1 + xp_3_2
 + xp_3_1 <= 35117.6705225369
 r_24: + xp_128_0 + xp_126_1 + xp_103_0 + xp_94_3 + xp_94_1 + xp_90_1
 + xp_74_1 + xp_61_1 + xp_40_0 + xp_39_0 + xp_38_1 + xp_22_0 + xp_18_0
 + xp_13_0 + xp_12_1 + xp_4_1 + xp_1_1 <= 39033.1753554502
 r_25: + xp_131_0 + xp_127_0 + xp_126_3 + xp_126_2 + xp_126_0 + xp_120_2
 + xp_94_2 + xp_94_0 + xp_90_2 + xp_90_0 + xp_89_0 + xp_77_0 + xp_74_0
 + xp_61_0 + xp_42_0 + xp_38_0 + xp_32_1 + xp_24_1 + xp_12_0 + xp_1_0
 <= 39033.1753554502
 r_26: + xp_128_2 + xp_128_1 + xp_123_1 + xp_121_0 + xp_112_1 + xp_112_0
 + xp_108_2 + xp_107_0 + xp_81_4 + xp_81_3 + xp_81_2 + xp_81_1 + xp_81_0
 + xp_79_2 + xp_79_1 + xp_79_0 + xp_78_3 + xp_67_1 + xp_64_0 + xp_60_1
 + xp_60_0 + xp_57_1 + xp_47_0 + xp_40_2 + xp_40_1 + xp_37_0 + xp_29_0
 + xp_25_0 + xp_22_1 + xp_18_3 + xp_18_2 + xp_18_1 + xp_17_1 + xp_17_0
 + xp_13_2 + xp_13_1 + xp_4_0 <= 34556.516170349
 r_27: + xp_131_2 + xp_127_1 + xp_125_0 + xp_120_1 + xp_116_0 + xp_115_0
 + xp_108_0 + xp_101_1 + xp_99_2 + xp_98_3 + xp_98_1 + xp_96_1 + xp_92_2
 + xp_92_1 + xp_86_0 + xp_85_2 + xp_85_1 + xp_82_1 + xp_78_1 + xp_77_2
 + xp_75_1 + xp_74_1 + xp_72_0 + xp_67_0 + xp_65_0 + xp_58_1 + xp_57_0
 + xp_52_0 + xp_50_0 + xp_48_1 + xp_42_2 + xp_38_1 + xp_28_0 + xp_26_2
 + xp_26_1 + xp_24_3 + xp_24_2 + xp_23_0 + xp_19_1 + xp_14_1 + xp_11_1
 <= 34556.516170349
 r_28: + xp_131_1 + xp_126_1 + xp_126_0 + xp_125_1 + xp_124_2 + xp_120_0
 + xp_116_1 + xp_115_1 + xp_109_0 + xp_99_1 + xp_99_0 + xp_98_2
 + xp_98_0 + xp_96_0 + xp_94_3 + xp_94_1 + xp_92_0 + xp_90_2 + xp_90_1
 + xp_86_1 + xp_85_0 + xp_77_1 + xp_75_0 + xp_65_1 + xp_58_0 + xp_54_0
 + xp_48_0 + xp_42_1 + xp_32_0 + xp_28_1 + xp_26_0 + xp_24_0 + xp_19_0
 + xp_12_1 + xp_11_0 <= 34556.516170349
 r_29: + xp_129_1 + xp_129_0 + xp_95_2 + xp_95_1 + xp_95_0 + xp_93_0
 + xp_87_0 + xp_71_0 + xp_62_0 + xp_49_0 + xp_45_2 + xp_45_1 + xp_45_0
 + xp_10_0 + xp_9_1 + xp_9_0 + xp_1_1 + xp_1_0 <= 34556.516170349
 r_30: + xp_125_1 + xp_125_0 + xp_121_0 + xp_102_0 + xp_99_2 + xp_99_1
 + xp_99_0 + xp_96_1 + xp_96_0 + xp_92_2 + xp_92_1 + xp_92_0 + xp_57_1
 + xp_57_0 + xp_37_0 + xp_26_2 + xp_26_1 + xp_26_0 + xp_23_0 + xp_11_1
 + xp_11_0 <= 34556.516170349

Bounds
 0 <= xp_0_0 <= 236.057185622491
 0 <= xp_1_0 <= 81.1767106361638
 0 <= xp_1_1 <= 101.470888295205
 0 <= xp_2_0 <= 12.7845992834031
 0 <= xp_2_1 <= 102.276794267224
 0 <= xp_3_0 <= 40.5297439746623
 0 <= xp_3_1 <= 101.324359936656
 0 <= xp_3_2 <= 40.5297439746623
 0 <= xp_4_0 <= 701.519169389347
 0 <= xp_4_1 <= 87.6898961736683
 0 <= xp_5_0 <= 1083.8189832617
 0 <= xp_6_0 <= 1792.64991774264
 0 <= xp_7_0 <= 638.541280884972
 0 <= xp_8_0 <= 1510.37036141586
 0 <= xp_9_0 <= 72.1798694212533
 0 <= xp_9_1 <= 36.0899347106266
 0 <= xp_10_0 <= 54.8602174407577
 0 <= xp_11_0 <= 23.0782164714726
 0 <= xp_11_1 <= 18.4625731771781
 0 <= xp_12_0 <= 1608.44911821065
 0 <= xp_12_1 <= 459.55689091733
 0 <= xp_13_0 <= 112.03558294659
 0 <= xp_13_1 <= 84.0266872099425
 0 <= xp_13_2 <= 56.017791473295
 0 <= xp_14_0 <= 73.3447698717181
 0 <= xp_14_1 <= 146.689539743436
 0 <= xp_15_0 <= 507.325135804314
 0 <= xp_16_0 <= 2642.06015941553
 0 <= xp_17_0 <= 165.100827995122
 0 <= xp_17_1 <= 132.080662396098
 0 <= xp_18_0 <= 159.627993803316
 0 <= xp_18_1 <= 79.8139969016578
 0 <= xp_18_2 <= 79.8139969016578
 0 <= xp_18_3 <= 39.9069984508289
 0 <= xp_19_0 <= 470.707699002911
 0 <= xp_19_1 <= 588.384623753639
 0 <= xp_20_0 <= 128.314883581387
 0 <= xp_21_0 <= 274.630776010524
 0 <= xp_22_0 <= 547.869532614831
 0 <= xp_22_1 <= 684.836915768539
 0 <= xp_23_0 <= 52.0248937028339
 0 <= xp_24_0 <= 151.481017067989
 0 <= xp_24_1 <= 75.7405085339947
 0 <= xp_24_2 <= 75.7405085339947
 0 <= xp_24_3 <= 37.8702542669974
 0 <= xp_25_0 <= 579.131357911267
 0 <= xp_26_0 <= 6.8282215083849
 0 <= xp_26_1 <= 6.8282215083849
 0 <= xp_26_2 <= 1.70705537709622
 0 <= xp_27_0 <= 262.989097923803
 0 <= xp_27_1 <= 75.1397422639437
 0 <= xp_28_0 <= 519.516295235594
 0 <= xp_28_1 <= 148.43322721017
 0 <= xp_29_0 <= 2449.58783404345
 0 <= xp_30_0 <= 81.5576843683913
 0 <= xp_30_1 <= 81.5576843683913
 0 <= xp_30_2 <= 20.3894210920978
 0 <= xp_31_0 <= 190.757943577058
 0 <= xp_32_0 <= 2002.57377061791
 0 <= xp_32_1 <= 250.321721327239
 0 <= xp_33_0 <= 8065.96853230236
 0 <= xp_34_0 <= 56.8090446094598
 0 <= xp_34_1 <= 454.472356875678
 0 <= xp_35_0 <= 261.24541045707
 0 <= xp_36_0 <= 319.204702681139
 0 <= xp_37_0 <= 365.163322340043
 0 <= xp_38_0 <= 297.862847258473
 0 <= xp_38_1 <= 37.2328559073091
 0 <= xp_39_0 <= 1574.72561649059
 0 <= xp_40_0 <= 472.151003334619
 0 <= xp_40_1 <= 94.4302006669238
 0 <= xp_40_2 <= 283.290602000771
 0 <= xp_41_0 <= 62.2086146219916
 0 <= xp_41_1 <= 17.7738898919976
 0 <= xp_42_0 <= 151.524975575554
 0 <= xp_42_1 <= 101.016650383703
 0 <= xp_42_2 <= 202.033300767406
 0 <= xp_43_0 <= 492.489139501225
 0 <= xp_44_0 <= 356.994366350935
 0 <= xp_44_1 <= 101.998390385981
 0 <= xp_45_0 <= 18.931463924535
 0 <= xp_45_1 <= 18.931463924535
 0 <= xp_45_2 <= 4.73286598113374
 0 <= xp_46_0 <= 1606.96918178931
 0 <= xp_47_0 <= 879.741611892534
 0 <= xp_48_0 <= 2585.8738603299
 0 <= xp_48_1 <= 323.234232541238
 0 <= xp_49_0 <= 88.1587869210252
 0 <= xp_50_0 <= 523.369991065433
 0 <= xp_50_1 <= 261.684995532717
 0 <= xp_51_0 <= 710.215627469231
 0 <= xp_52_0 <= 663.004190344733
 0 <= xp_53_0 <= 84.488251539372
 0 <= xp_53_1 <= 84.488251539372
 0 <= xp_53_2 <= 21.122062884843
 0 <= xp_54_0 <= 3696.93246544587
 0 <= xp_55_0 <= 1186.28626439504
 0 <= xp_56_0 <= 95.8735049986317
 0 <= xp_57_0 <= 137.502211662412
 0 <= xp_57_1 <= 68.7511058312059
 0 <= xp_58_0 <= 4045.120477448
 0 <= xp_58_1 <= 505.640059681
 0 <= xp_59_0 <= 10654.28941622
 0 <= xp_60_0 <= 452.333042840862
 0 <= xp_60_1 <= 226.166521420431
 0 <= xp_61_0 <= 1345.75307700395
 0 <= xp_61_1 <= 1076.60246160316
 0 <= xp_62_0 <= 131.348020603352
 0 <= xp_63_0 <= 87.960973636984
 0 <= xp_63_1 <= 43.980486818492
 0 <= xp_64_0 <= 995.330507533939
 0 <= xp_65_0 <= 464.78795331753
 0 <= xp_65_1 <= 58.0984941646913
 0 <= xp_66_0 <= 1681.61072763419
 0 <= xp_67_0 <= 269.993153462447
 0 <= xp_67_1 <= 134.996576731223
 0 <= xp_68_0 <= 491.587990096148
 0 <= xp_68_1 <= 655.450653461531
 0 <= xp_68_2 <= 327.725326730765
 0 <= xp_69_0 <= 1720.25025578357
 0 <= xp_70_0 <= 632.277193557001
 0 <= xp_71_0 <= 70.9490312094414
 0 <= xp_72_0 <= 599.638001690204
 0 <= xp_73_0 <= 923.919911995068
 0 <= xp_74_0 <= 848.164750625218
 0 <= xp_74_1 <= 106.020593828152
 0 <= xp_75_0 <= 1569.55316543381
 0 <= xp_75_1 <= 196.194145679227
 0 <= xp_76_0 <= 1723.81089489631
 0 <= xp_77_0 <= 318.186330589223
 0 <= xp_77_1 <= 63.6372661178447
 0 <= xp_77_2 <= 190.911798353534
 0 <= xp_78_0 <= 3113.50050021118
 0 <= xp_78_1 <= 3113.50050021118
 0 <= xp_78_2 <= 12454.0020008447
 0 <= xp_78_3 <= 6227.00100042237
 0 <= xp_78_4 <= 3113.50050021118
 0 <= xp_79_0 <= 592.633946151561
 0 <= xp_79_1 <= 355.580367690936
 0 <= xp_79_2 <= 118.526789230312
 0 <= xp_80_0 <= 150.513929901566
 0 <= xp_80_1 <= 75.2569649507829
 0 <= xp_81_0 <= 116.109071314253
 0 <= xp_81_1 <= 58.0545356571266
 0 <= xp_81_2 <= 29.0272678285633
 0 <= xp_81_3 <= 29.0272678285633
 0 <= xp_81_4 <= 29.0272678285633
 0 <= xp_82_0 <= 122.277915209167
 0 <= xp_82_1 <= 48.9111660836669
 0 <= xp_82_2 <= 48.9111660836669
 0 <= xp_83_0 <= 448.493999846878
 0 <= xp_83_1 <= 56.0617499808597
 0 <= xp_84_0 <= 891.28072012827
 0 <= xp_85_0 <= 136.425228227076
 0 <= xp_85_1 <= 181.900304302769
 0 <= xp_85_2 <= 90.9501521513843
 0 <= xp_86_0 <= 152.623938264672
 0 <= xp_86_1 <= 19.077992283084
 0 <= xp_87_0 <= 141.5024358508
 0 <= xp_88_0 <= 283.92800036046
 0 <= xp_88_1 <= 141.96400018023
 0 <= xp_89_0 <= 2224.34444128187
 0 <= xp_90_0 <= 14491.9330643805
 0 <= xp_90_1 <= 4830.64435479351
 0 <= xp_90_2 <= 2415.32217739675
 0 <= xp_91_0 <= 908.600372108766
 0 <= xp_91_1 <= 1211.46716281169
 0 <= xp_91_2 <= 605.733581405844
 0 <= xp_92_0 <= 52.1054843000358
 0 <= xp_92_1 <= 7.44364061429083
 0 <= xp_92_2 <= 7.44364061429083
 0 <= xp_93_0 <= 130.688642989882
 0 <= xp_94_0 <= 158.338544248084
 0 <= xp_94_1 <= 26.3897573746807
 0 <= xp_94_2 <= 26.3897573746807
 0 <= xp_94_3 <= 26.3897573746807
 0 <= xp_95_0 <= 27.3128860335396
 0 <= xp_95_1 <= 20.4846645251547
 0 <= xp_95_2 <= 13.6564430167698
 0 <= xp_96_0 <= 89.9537593132509
 0 <= xp_96_1 <= 25.7010740895002
 0 <= xp_97_0 <= 528.557094958069
 0 <= xp_98_0 <= 47.7828977228394
 0 <= xp_98_1 <= 47.7828977228394
 0 <= xp_98_2 <= 31.8552651485596
 0 <= xp_98_3 <= 15.9276325742798
 0 <= xp_99_0 <= 1.82427806393545
 0 <= xp_99_1 <= 7.2971122557418
 0 <= xp_99_2 <= 7.2971122557418
 0 <= xp_100_0 <= 504.357936543696
 0 <= xp_101_0 <= 222.723104994529
 0 <= xp_101_1 <= 27.8403881243161
 0 <= xp_102_0 <= 75.1690479356535
 0 <= xp_103_0 <= 1443.77322245532
 0 <= xp_104_0 <= 102.877560537276
 0 <= xp_104_1 <= 29.3935887249359
 0 <= xp_105_0 <= 1130.83260710216
 0 <= xp_105_1 <= 323.095030600616
 0 <= xp_106_0 <= 18.4625731771781
 0 <= xp_106_1 <= 13.8469298828835
 0 <= xp_106_2 <= 9.23128658858903
 0 <= xp_107_0 <= 451.014287613921
 0 <= xp_108_0 <= 189.212069394365
 0 <= xp_108_1 <= 283.818104091548
 0 <= xp_108_2 <= 378.42413878873
 0 <= xp_109_0 <= 646.277978216361
 0 <= xp_109_1 <= 323.138989108181
 0 <= xp_110_0 <= 133.589904489153
 0 <= xp_111_0 <= 2607.26700067806
 0 <= xp_111_1 <= 325.908375084757
 0 <= xp_112_0 <= 4172.95181744618
 0 <= xp_112_1 <= 521.618977180772
 0 <= xp_113_0 <= 426.617315915507
 0 <= xp_114_0 <= 2404.61828080475
 0 <= xp_115_0 <= 123.083821181187
 0 <= xp_115_1 <= 98.4670569449496
 0 <= xp_116_0 <= 88.9793457288998
 0 <= xp_116_1 <= 71.1834765831198
 0 <= xp_117_0 <= 1948.79053661249
 0 <= xp_118_0 <= 3163.69378943215
 0 <= xp_119_0 <= 20.9901873621489
 0 <= xp_119_1 <= 20.9901873621489
 0 <= xp_119_2 <= 6.99672912071629
 0 <= xp_119_3 <= 6.99672912071629
 0 <= xp_119_4 <= 6.99672912071629
 0 <= xp_120_0 <= 1692.29997139034
 0 <= xp_120_1 <= 241.757138770048
 0 <= xp_120_2 <= 241.757138770048
 0 <= xp_121_0 <= 75.7624877877771
 0 <= xp_122_0 <= 2281.24872932439
 0 <= xp_123_0 <= 458.047648824275
 0 <= xp_123_1 <= 57.2559561030343
 0 <= xp_124_0 <= 107.390633980586
 0 <= xp_124_1 <= 15.3415191400837
 0 <= xp_124_2 <= 15.3415191400837
 0 <= xp_125_0 <= 15.2023171994621
 0 <= xp_125_1 <= 12.1618537595697
 0 <= xp_126_0 <= 2827.93138223497
 0 <= xp_126_1 <= 11311.7255289399
 0 <= xp_126_2 <= 8483.79414670492
 0 <= xp_126_3 <= 2827.93138223497
 0 <= xp_127_0 <= 192.823993432599
 0 <= xp_127_1 <= 385.647986865198
 0 <= xp_128_0 <= 181.021134151474
 0 <= xp_128_1 <= 90.5105670757372
 0 <= xp_128_2 <= 135.765850613606
 0 <= xp_129_0 <= 21.8327254238058
 0 <= xp_129_1 <= 27.2909067797572
 0 <= xp_130_0 <= 404.791916909629
 0 <= xp_131_0 <= 256.651746416557
 0 <= xp_131_1 <= 256.651746416557
 0 <= xp_131_2 <= 256.651746416557

End
